p cnf 184 465
a 1 2 3 4 5 6 7 8 9 10 11 12 13 14 15 16 17 18 19 20 21 22 23 24 25 26 27 28 29 30 31 32 33 34 35 36 37 38 39 40 41 42 43 44 45 46 47 48 0
e 49 50 51 52 53 54 55 56 57 58 59 60 61 62 63 64 65 66 67 68 69 70 71 72 73 74 75 76 77 78 79 80 81 82 83 84 85 86 87 88 89 90 91 92 93 94 95 96 97 98 99 100 101 102 103 104 105 106 107 108 109 110 111 112 113 114 115 116 117 118 119 120 121 122 123 124 125 126 127 128 129 130 131 132 133 134 135 136 137 138 139 140 141 142 143 144 145 146 147 148 149 150 151 152 153 154 155 156 157 158 159 160 161 162 163 164 165 166 167 168 169 170 171 172 173 174 175 176 177 178 179 180 181 182 183 0
1 -73 0
-2 -73 0
-3 -73 0
-4 -73 0
-5 -73 0
-6 -73 0
2 3 4 5 6 73 -1 0
7 -74 0
-8 -74 0
9 -74 0
-10 -74 0
-11 -74 0
-12 -74 0
8 10 11 12 74 -7 -9 0
13 -75 0
14 -75 0
15 -75 0
-16 -75 0
-17 -75 0
-18 -75 0
16 17 18 75 -13 -14 -15 0
19 -76 0
20 -76 0
-21 -76 0
22 -76 0
-23 -76 0
-24 -76 0
21 23 24 76 -19 -20 -22 0
73 -77 0
74 -77 0
75 -77 0
76 -77 0
77 -73 -74 -75 -76 0
7 -78 0
-8 -78 0
9 -78 0
-10 -78 0
-11 -78 0
-12 -78 0
8 10 11 12 78 -7 -9 0
13 -79 0
-14 -79 0
-15 -79 0
-16 -79 0
-17 -79 0
-18 -79 0
14 15 16 17 18 79 -13 0
7 -80 0
-8 -80 0
-9 -80 0
-10 -80 0
-11 -80 0
-12 -80 0
8 9 10 11 12 80 -7 0
-80 -81 0
19 -81 0
80 81 -19 0
82 -80 0
82 -81 0
80 81 -82 0
-80 -83 0
20 -83 0
80 83 -20 0
84 -80 0
84 -83 0
80 83 -84 0
-80 -85 0
21 -85 0
80 85 -21 0
-80 -86 0
22 -86 0
80 86 -22 0
-80 -87 0
23 -87 0
80 87 -23 0
-80 -88 0
24 -88 0
80 88 -24 0
-79 -89 0
82 -89 0
79 89 -82 0
90 -79 0
90 -89 0
79 89 -90 0
-79 -91 0
84 -91 0
79 91 -84 0
92 -79 0
92 -91 0
79 91 -92 0
-79 -93 0
85 -93 0
79 93 -85 0
94 -79 0
94 -93 0
79 93 -94 0
-79 -95 0
86 -95 0
79 95 -86 0
-79 -96 0
87 -96 0
79 96 -87 0
-79 -97 0
88 -97 0
79 97 -88 0
-78 -98 0
90 -98 0
78 98 -90 0
99 -78 0
99 -98 0
78 98 -99 0
-78 -100 0
92 -100 0
78 100 -92 0
-78 -101 0
94 -101 0
78 101 -94 0
102 -78 0
102 -101 0
78 101 -102 0
-78 -103 0
95 -103 0
78 103 -95 0
-78 -104 0
96 -104 0
78 104 -96 0
-78 -105 0
97 -105 0
78 105 -97 0
-25 -99 -106 0
25 99 -106 0
99 106 -25 0
25 106 -99 0
-26 -100 -107 0
26 100 -107 0
100 107 -26 0
26 107 -100 0
-27 -102 -108 0
27 102 -108 0
102 108 -27 0
27 108 -102 0
-28 -103 -109 0
28 103 -109 0
103 109 -28 0
28 109 -103 0
-29 -104 -110 0
29 104 -110 0
104 110 -29 0
29 110 -104 0
-30 -105 -111 0
30 105 -111 0
105 111 -30 0
30 111 -105 0
-106 -112 0
-107 -112 0
-108 -112 0
-109 -112 0
-110 -112 0
-111 -112 0
106 107 108 109 110 111 112 0
-31 -13 -113 0
31 13 -113 0
13 113 -31 0
31 113 -13 0
-32 -14 -114 0
32 14 -114 0
14 114 -32 0
32 114 -14 0
-33 -15 -115 0
33 15 -115 0
15 115 -33 0
33 115 -15 0
-34 -16 -116 0
34 16 -116 0
16 116 -34 0
34 116 -16 0
-35 -17 -117 0
35 17 -117 0
17 117 -35 0
35 117 -17 0
-36 -18 -118 0
36 18 -118 0
18 118 -36 0
36 118 -18 0
-113 -119 0
-114 -119 0
-115 -119 0
-116 -119 0
-117 -119 0
-118 -119 0
113 114 115 116 117 118 119 0
-37 -1 -120 0
37 1 -120 0
1 120 -37 0
37 120 -1 0
-38 -2 -121 0
38 2 -121 0
2 121 -38 0
38 121 -2 0
-39 -3 -122 0
39 3 -122 0
3 122 -39 0
39 122 -3 0
-40 -4 -123 0
40 4 -123 0
4 123 -40 0
40 123 -4 0
-41 -5 -124 0
41 5 -124 0
5 124 -41 0
41 124 -5 0
-42 -6 -125 0
42 6 -125 0
6 125 -42 0
42 125 -6 0
-120 -126 0
-121 -126 0
-122 -126 0
-123 -126 0
-124 -126 0
-125 -126 0
120 121 122 123 124 125 126 0
127 -20 0
20 -127 0
-21 -127 -128 0
21 127 -128 0
127 128 -21 0
21 128 -127 0
21 -129 0
127 -129 0
129 -21 -127 0
130 -129 0
129 -130 0
-22 -130 -131 0
22 130 -131 0
130 131 -22 0
22 131 -130 0
22 -132 0
130 -132 0
132 -22 -130 0
133 -132 0
132 -133 0
-23 -133 -134 0
23 133 -134 0
133 134 -23 0
23 134 -133 0
23 -135 0
133 -135 0
135 -23 -133 0
136 -135 0
135 -136 0
-24 -136 -137 0
24 136 -137 0
136 137 -24 0
24 137 -136 0
24 -138 0
136 -138 0
138 -24 -136 0
139 -138 0
138 -139 0
-43 -19 -140 0
43 19 -140 0
19 140 -43 0
43 140 -19 0
20 -44 -141 0
44 -20 -141 0
141 -44 -20 0
44 20 141 0
-45 -128 -142 0
45 128 -142 0
128 142 -45 0
45 142 -128 0
-46 -131 -143 0
46 131 -143 0
131 143 -46 0
46 143 -131 0
-47 -134 -144 0
47 134 -144 0
134 144 -47 0
47 144 -134 0
-48 -137 -145 0
48 137 -145 0
137 145 -48 0
48 145 -137 0
-140 -146 0
-141 -146 0
-142 -146 0
-143 -146 0
-144 -146 0
-145 -146 0
140 141 142 143 144 145 146 0
112 -147 0
119 -147 0
126 -147 0
146 -147 0
147 -112 -119 -126 -146 0
77 -148 0
147 -148 0
148 -77 -147 0
49 -149 0
-50 -149 0
-51 -149 0
-52 -149 0
-53 -149 0
-54 -149 0
50 51 52 53 54 149 -49 0
55 -150 0
-56 -150 0
57 -150 0
-58 -150 0
-59 -150 0
-60 -150 0
56 58 59 60 150 -55 -57 0
61 -151 0
62 -151 0
63 -151 0
-64 -151 0
-65 -151 0
-66 -151 0
64 65 66 151 -61 -62 -63 0
67 -152 0
68 -152 0
-69 -152 0
70 -152 0
-71 -152 0
-72 -152 0
69 71 72 152 -67 -68 -70 0
149 -153 0
150 -153 0
151 -153 0
152 -153 0
153 -149 -150 -151 -152 0
-25 -49 -154 0
25 49 -154 0
49 154 -25 0
25 154 -49 0
-26 -50 -155 0
26 50 -155 0
50 155 -26 0
26 155 -50 0
-27 -51 -156 0
27 51 -156 0
51 156 -27 0
27 156 -51 0
-28 -52 -157 0
28 52 -157 0
52 157 -28 0
28 157 -52 0
-29 -53 -158 0
29 53 -158 0
53 158 -29 0
29 158 -53 0
-30 -54 -159 0
30 54 -159 0
54 159 -30 0
30 159 -54 0
-154 -160 0
-155 -160 0
-156 -160 0
-157 -160 0
-158 -160 0
-159 -160 0
154 155 156 157 158 159 160 0
-31 -55 -161 0
31 55 -161 0
55 161 -31 0
31 161 -55 0
-32 -56 -162 0
32 56 -162 0
56 162 -32 0
32 162 -56 0
-33 -57 -163 0
33 57 -163 0
57 163 -33 0
33 163 -57 0
-34 -58 -164 0
34 58 -164 0
58 164 -34 0
34 164 -58 0
-35 -59 -165 0
35 59 -165 0
59 165 -35 0
35 165 -59 0
-36 -60 -166 0
36 60 -166 0
60 166 -36 0
36 166 -60 0
-161 -167 0
-162 -167 0
-163 -167 0
-164 -167 0
-165 -167 0
-166 -167 0
161 162 163 164 165 166 167 0
-37 -61 -168 0
37 61 -168 0
61 168 -37 0
37 168 -61 0
-38 -62 -169 0
38 62 -169 0
62 169 -38 0
38 169 -62 0
-39 -63 -170 0
39 63 -170 0
63 170 -39 0
39 170 -63 0
-40 -64 -171 0
40 64 -171 0
64 171 -40 0
40 171 -64 0
-41 -65 -172 0
41 65 -172 0
65 172 -41 0
41 172 -65 0
-42 -66 -173 0
42 66 -173 0
66 173 -42 0
42 173 -66 0
-168 -174 0
-169 -174 0
-170 -174 0
-171 -174 0
-172 -174 0
-173 -174 0
168 169 170 171 172 173 174 0
-43 -67 -175 0
43 67 -175 0
67 175 -43 0
43 175 -67 0
-44 -68 -176 0
44 68 -176 0
68 176 -44 0
44 176 -68 0
-45 -69 -177 0
45 69 -177 0
69 177 -45 0
45 177 -69 0
-46 -70 -178 0
46 70 -178 0
70 178 -46 0
46 178 -70 0
-47 -71 -179 0
47 71 -179 0
71 179 -47 0
47 179 -71 0
-48 -72 -180 0
48 72 -180 0
72 180 -48 0
48 180 -72 0
-175 -181 0
-176 -181 0
-177 -181 0
-178 -181 0
-179 -181 0
-180 -181 0
175 176 177 178 179 180 181 0
160 -182 0
167 -182 0
174 -182 0
181 -182 0
182 -160 -167 -174 -181 0
153 -183 0
182 -183 0
183 -153 -182 0
183 -148 0
